<?xml version = "1.0" encoding="UTF-8" standalone="yes"?>
<CPLEXSolution version="1.2">
 <header
   problemName="IloCplex"
   solutionName="p0"
   solutionIndex="-1"
   objectiveValue="-2120959104"
   solutionTypeValue="3"
   solutionTypeString="primal"
   solutionStatusValue="127"
   solutionStatusString="integer feasible solution"
   solutionMethodString="mip"
   primalFeasible="0"
   dualFeasible="0"
   writeLevel="3"/>
 <quality
   epInt="1.0000000000000001e-05"
   epRHS="9.9999999999999995e-07"
   maxIntInfeas="0"
   maxPrimalInfeas="0"
   maxX="1"
   maxSlack="1"/>
 <variables>
  <variable name="w0_7" index="7" value="1"/>
  <variable name="w1_7" index="16" value="1"/>
  <variable name="w2_7" index="25" value="1"/>
  <variable name="w4_7" index="43" value="1"/>
  <variable name="w5_7" index="52" value="1"/>
  <variable name="w6_7" index="61" value="1"/>
  <variable name="w10_7" index="97" value="1"/>
  <variable name="w11_7" index="106" value="1"/>
  <variable name="w12_7" index="115" value="1"/>
  <variable name="w24_7" index="223" value="1"/>
  <variable name="u7" index="232" value="1"/>
  <variable name="x0_16" index="250" value="1"/>
  <variable name="x1_17" index="507" value="1"/>
  <variable name="x2_1" index="747" value="1"/>
  <variable name="x3_112" index="1114" value="1"/>
  <variable name="x4_5" index="1263" value="1"/>
  <variable name="x5_6" index="1520" value="1"/>
  <variable name="x6_7" index="1777" value="1"/>
  <variable name="x7_23" index="2049" value="1"/>
  <variable name="x8_9" index="2291" value="1"/>
  <variable name="x9_25" index="2563" value="1"/>
  <variable name="x10_11" index="2805" value="1"/>
  <variable name="x11_27" index="3077" value="1"/>
  <variable name="x12_252" index="3558" value="1"/>
  <variable name="x13_12" index="3574" value="1"/>
  <variable name="x14_15" index="3833" value="1"/>
  <variable name="x15_14" index="4088" value="1"/>
  <variable name="x16_31" index="4361" value="1"/>
  <variable name="x17_18" index="4604" value="1"/>
  <variable name="x18_34" index="4876" value="1"/>
  <variable name="x19_174" index="5272" value="1"/>
  <variable name="x20_4" index="5358" value="1"/>
  <variable name="x21_37" index="5647" value="1"/>
  <variable name="x22_38" index="5904" value="1"/>
  <variable name="x23_246" index="6368" value="1"/>
  <variable name="x24_8" index="6386" value="1"/>
  <variable name="x25_24" index="6658" value="1"/>
  <variable name="x26_10" index="6900" value="1"/>
  <variable name="x27_28" index="7174" value="1"/>
  <variable name="x28_96" index="7498" value="1"/>
  <variable name="x29_30" index="7688" value="1"/>
  <variable name="x30_29" index="7943" value="1"/>
  <variable name="x31_47" index="8217" value="1"/>
  <variable name="x32_48" index="8474" value="1"/>
  <variable name="x33_32" index="8714" value="1"/>
  <variable name="x34_33" index="8971" value="1"/>
  <variable name="x35_19" index="9213" value="1"/>
  <variable name="x36_126" index="9576" value="1"/>
  <variable name="x37_36" index="9742" value="1"/>
  <variable name="x38_39" index="10001" value="1"/>
  <variable name="x39_98" index="10316" value="1"/>
  <variable name="x40_169" index="10643" value="1"/>
  <variable name="x41_40" index="10770" value="1"/>
  <variable name="x42_26" index="11012" value="1"/>
  <variable name="x43_42" index="11284" value="1"/>
  <variable name="x44_60" index="11558" value="1"/>
  <variable name="x45_44" index="11798" value="1"/>
  <variable name="x46_45" index="12055" value="1"/>
  <variable name="x47_46" index="12312" value="1"/>
  <variable name="x48_64" index="12586" value="1"/>
  <variable name="x49_50" index="12828" value="1"/>
  <variable name="x50_49" index="13083" value="1"/>
  <variable name="x51_35" index="13325" value="1"/>
  <variable name="x52_140" index="13686" value="1"/>
  <variable name="x53_69" index="13871" value="1"/>
  <variable name="x54_53" index="14111" value="1"/>
  <variable name="x55_54" index="14368" value="1"/>
  <variable name="x56_72" index="14642" value="1"/>
  <variable name="x57_56" index="14882" value="1"/>
  <variable name="x58_57" index="15139" value="1"/>
  <variable name="x59_93" index="15431" value="1"/>
  <variable name="x60_122" index="15716" value="1"/>
  <variable name="x61_210" index="16060" value="1"/>
  <variable name="x62_78" index="16184" value="1"/>
  <variable name="x63_244" index="16606" value="1"/>
  <variable name="x64_65" index="16683" value="1"/>
  <variable name="x65_203" index="17077" value="1"/>
  <variable name="x66_67" index="17197" value="1"/>
  <variable name="x67_68" index="17454" value="1"/>
  <variable name="x68_52" index="17694" value="1"/>
  <variable name="x69_136" index="18034" value="1"/>
  <variable name="x70_86" index="18240" value="1"/>
  <variable name="x71_70" index="18480" value="1"/>
  <variable name="x72_88" index="18754" value="1"/>
  <variable name="x73_89" index="19011" value="1"/>
  <variable name="x74_58" index="19236" value="1"/>
  <variable name="x75_59" index="19493" value="1"/>
  <variable name="x76_77" index="19767" value="1"/>
  <variable name="x77_76" index="20022" value="1"/>
  <variable name="x78_62" index="20264" value="1"/>
  <variable name="x79_63" index="20521" value="1"/>
  <variable name="x80_232" index="20946" value="1"/>
  <variable name="x81_80" index="21050" value="1"/>
  <variable name="x82_66" index="21292" value="1"/>
  <variable name="x83_82" index="21564" value="1"/>
  <variable name="x84_181" index="21919" value="1"/>
  <variable name="x85_84" index="22078" value="1"/>
  <variable name="x86_85" index="22335" value="1"/>
  <variable name="x87_71" index="22577" value="1"/>
  <variable name="x88_87" index="22849" value="1"/>
  <variable name="x89_73" index="23091" value="1"/>
  <variable name="x90_106" index="23380" value="1"/>
  <variable name="x91_92" index="23622" value="1"/>
  <variable name="x92_91" index="23877" value="1"/>
  <variable name="x93_94" index="24136" value="1"/>
  <variable name="x94_95" index="24393" value="1"/>
  <variable name="x95_79" index="24633" value="1"/>
  <variable name="x96_22" index="24832" value="1"/>
  <variable name="x97_81" index="25147" value="1"/>
  <variable name="x98_97" index="25419" value="1"/>
  <variable name="x99_215" index="25793" value="1"/>
  <variable name="x100_99" index="25933" value="1"/>
  <variable name="x101_101" index="26191" value="1"/>
  <variable name="x102_21" index="26367" value="1"/>
  <variable name="x103_103" index="26705" value="1"/>
  <variable name="x104_104" index="26962" value="1"/>
  <variable name="x105_121" index="27235" value="1"/>
  <variable name="x106_90" index="27460" value="1"/>
  <variable name="x107_75" index="27701" value="1"/>
  <variable name="x108_107" index="27989" value="1"/>
  <variable name="x109_108" index="28246" value="1"/>
  <variable name="x110_110" index="28504" value="1"/>
  <variable name="x111_111" index="28761" value="1"/>
  <variable name="x112_113" index="29019" value="1"/>
  <variable name="x113_128" index="29290" value="1"/>
  <variable name="x114_115" index="29533" value="1"/>
  <variable name="x115_116" index="29790" value="1"/>
  <variable name="x116_100" index="30030" value="1"/>
  <variable name="x117_148" index="30334" value="1"/>
  <variable name="x118_102" index="30544" value="1"/>
  <variable name="x119_118" index="30816" value="1"/>
  <variable name="x120_119" index="31073" value="1"/>
  <variable name="x121_105" index="31315" value="1"/>
  <variable name="x122_74" index="31540" value="1"/>
  <variable name="x123_123" index="31845" value="1"/>
  <variable name="x124_124" index="32102" value="1"/>
  <variable name="x125_109" index="32343" value="1"/>
  <variable name="x126_125" index="32615" value="1"/>
  <variable name="x127_127" index="32873" value="1"/>
  <variable name="x128_129" index="33131" value="1"/>
  <variable name="x129_130" index="33388" value="1"/>
  <variable name="x130_114" index="33628" value="1"/>
  <variable name="x131_132" index="33902" value="1"/>
  <variable name="x132_131" index="34157" value="1"/>
  <variable name="x133_117" index="34399" value="1"/>
  <variable name="x134_150" index="34688" value="1"/>
  <variable name="x135_135" index="34929" value="1"/>
  <variable name="x136_120" index="35170" value="1"/>
  <variable name="x137_153" index="35459" value="1"/>
  <variable name="x138_139" index="35701" value="1"/>
  <variable name="x139_138" index="35956" value="1"/>
  <variable name="x140_156" index="36230" value="1"/>
  <variable name="x141_157" index="36487" value="1"/>
  <variable name="x142_141" index="36727" value="1"/>
  <variable name="x143_143" index="36985" value="1"/>
  <variable name="x144_144" index="37242" value="1"/>
  <variable name="x145_145" index="37499" value="1"/>
  <variable name="x146_146" index="37756" value="1"/>
  <variable name="x147_163" index="38029" value="1"/>
  <variable name="x148_149" index="38271" value="1"/>
  <variable name="x149_133" index="38511" value="1"/>
  <variable name="x150_134" index="38768" value="1"/>
  <variable name="x151_240" index="39130" value="1"/>
  <variable name="x152_151" index="39297" value="1"/>
  <variable name="x153_137" index="39539" value="1"/>
  <variable name="x154_170" index="39828" value="1"/>
  <variable name="x155_155" index="40069" value="1"/>
  <variable name="x156_61" index="40231" value="1"/>
  <variable name="x157_189" index="40615" value="1"/>
  <variable name="x158_142" index="40824" value="1"/>
  <variable name="x159_159" index="41097" value="1"/>
  <variable name="x160_160" index="41354" value="1"/>
  <variable name="x161_192" index="41642" value="1"/>
  <variable name="x162_162" index="41868" value="1"/>
  <variable name="x163_147" index="42109" value="1"/>
  <variable name="x164_164" index="42382" value="1"/>
  <variable name="x165_165" index="42639" value="1"/>
  <variable name="x166_166" index="42896" value="1"/>
  <variable name="x167_183" index="43169" value="1"/>
  <variable name="x168_152" index="43394" value="1"/>
  <variable name="x169_185" index="43683" value="1"/>
  <variable name="x170_154" index="43908" value="1"/>
  <variable name="x171_171" index="44181" value="1"/>
  <variable name="x172_172" index="44438" value="1"/>
  <variable name="x173_173" index="44695" value="1"/>
  <variable name="x174_158" index="44936" value="1"/>
  <variable name="x175_191" index="45225" value="1"/>
  <variable name="x176_177" index="45467" value="1"/>
  <variable name="x177_161" index="45707" value="1"/>
  <variable name="x178_178" index="45980" value="1"/>
  <variable name="x179_51" index="46109" value="1"/>
  <variable name="x180_180" index="46494" value="1"/>
  <variable name="x181_182" index="46752" value="1"/>
  <variable name="x182_198" index="47024" value="1"/>
  <variable name="x183_167" index="47249" value="1"/>
  <variable name="x184_168" index="47506" value="1"/>
  <variable name="x185_184" index="47778" value="1"/>
  <variable name="x186_187" index="48037" value="1"/>
  <variable name="x187_43" index="48149" value="1"/>
  <variable name="x188_186" index="48548" value="1"/>
  <variable name="x189_188" index="48806" value="1"/>
  <variable name="x190_190" index="49064" value="1"/>
  <variable name="x191_175" index="49305" value="1"/>
  <variable name="x192_176" index="49562" value="1"/>
  <variable name="x193_83" index="49725" value="1"/>
  <variable name="x194_193" index="50091" value="1"/>
  <variable name="x195_179" index="50333" value="1"/>
  <variable name="x196_195" index="50605" value="1"/>
  <variable name="x197_197" index="50863" value="1"/>
  <variable name="x198_214" index="51136" value="1"/>
  <variable name="x199_199" index="51377" value="1"/>
  <variable name="x200_200" index="51634" value="1"/>
  <variable name="x201_201" index="51891" value="1"/>
  <variable name="x202_202" index="52148" value="1"/>
  <variable name="x203_55" index="52257" value="1"/>
  <variable name="x204_204" index="52662" value="1"/>
  <variable name="x205_205" index="52919" value="1"/>
  <variable name="x206_206" index="53176" value="1"/>
  <variable name="x207_207" index="53433" value="1"/>
  <variable name="x208_223" index="53705" value="1"/>
  <variable name="x209_208" index="53946" value="1"/>
  <variable name="x210_194" index="54188" value="1"/>
  <variable name="x211_211" index="54461" value="1"/>
  <variable name="x212_196" index="54702" value="1"/>
  <variable name="x213_212" index="54974" value="1"/>
  <variable name="x214_213" index="55231" value="1"/>
  <variable name="x215_231" index="55505" value="1"/>
  <variable name="x216_216" index="55746" value="1"/>
  <variable name="x217_217" index="56003" value="1"/>
  <variable name="x218_218" index="56260" value="1"/>
  <variable name="x219_219" index="56517" value="1"/>
  <variable name="x220_0" index="56554" value="1"/>
  <variable name="x221_220" index="57030" value="1"/>
  <variable name="x222_222" index="57288" value="1"/>
  <variable name="x223_239" index="57561" value="1"/>
  <variable name="x224_224" index="57802" value="1"/>
  <variable name="x225_209" index="58043" value="1"/>
  <variable name="x226_225" index="58315" value="1"/>
  <variable name="x227_226" index="58572" value="1"/>
  <variable name="x228_227" index="58829" value="1"/>
  <variable name="x229_228" index="59086" value="1"/>
  <variable name="x230_229" index="59343" value="1"/>
  <variable name="x231_230" index="59600" value="1"/>
  <variable name="x232_2" index="59628" value="1"/>
  <variable name="x233_233" index="60115" value="1"/>
  <variable name="x234_235" index="60373" value="1"/>
  <variable name="x235_234" index="60628" value="1"/>
  <variable name="x236_236" index="60886" value="1"/>
  <variable name="x237_221" index="61127" value="1"/>
  <variable name="x238_238" index="61400" value="1"/>
  <variable name="x239_20" index="61438" value="1"/>
  <variable name="x240_13" index="61687" value="1"/>
  <variable name="x241_241" index="62171" value="1"/>
  <variable name="x242_242" index="62428" value="1"/>
  <variable name="x243_243" index="62685" value="1"/>
  <variable name="x244_3" index="62701" value="1"/>
  <variable name="x245_245" index="63199" value="1"/>
  <variable name="x246_247" index="63457" value="1"/>
  <variable name="x247_41" index="63507" value="1"/>
  <variable name="x248_248" index="63970" value="1"/>
  <variable name="x249_249" index="64227" value="1"/>
  <variable name="x250_250" index="64484" value="1"/>
  <variable name="x251_251" index="64741" value="1"/>
  <variable name="x252_253" index="64999" value="1"/>
  <variable name="x253_237" index="65239" value="1"/>
  <variable name="x254_254" index="65512" value="1"/>
  <variable name="x255_255" index="65769" value="1"/>
  <variable name="k0" index="65770" value="1"/>
  <variable name="k1" index="65771" value="1"/>
  <variable name="k2" index="65772" value="1"/>
  <variable name="k4" index="65774" value="1"/>
  <variable name="k5" index="65775" value="1"/>
  <variable name="k6" index="65776" value="1"/>
  <variable name="k10" index="65780" value="1"/>
  <variable name="k11" index="65781" value="1"/>
  <variable name="k12" index="65782" value="1"/>
  <variable name="k24" index="65794" value="1"/>
 </variables>
</CPLEXSolution>
